NAME: tsp25_21
COMMENT: 25-tsp problem (Padberg/Rinaldi)
TYPE: TSP
DIMENSION: 25
EDGE_WEIGHT_TYPE : EUC_2D
NODE_COORD_SECTION
1 7 30
2 40 24
3 32 18
4 30 34
5 22 12
6 3 27
7 28 10
8 33 16
9 38 26
10 11 36
11 6 12
12 5 11
13 15 23
14 6 14
15 33 38
16 21 24
17 30 39
18 5 40
19 8 19
20 38 2
21 14 22
22 31 4
23 14 35
24 33 21
25 30 17
